p cnf 15 44
-15 -14 6 0
-15 14 -4 0
15 -12 -11 0
15 -12 4 0
15 11 8 0
-15 11 -3 0
15 10 -9 0
15 -8 -7 0
15 8 2 0
-15 8 -1 0
14 -13 7 0
-14 12 -5 0
-14 12 3 0
-14 12 1 0
14 -9 -8 0
14 9 5 0
14 -9 -5 0
-14 8 6 0
13 -12 -8 0
-13 11 -10 0
13 10 4 0
-13 6 -4 0
12 11 5 0
12 11 -3 0
-12 -10 8 0
-12 7 5 0
12 -7 4 0
-12 6 -1 0
-12 5 2 0
11 9 1 0
-11 -3 1 0
-10 6 1 0
-10 5 2 0
-9 -7 -6 0
-9 4 -1 0
-9 -3 2 0
9 3 2 0
8 7 3 0
8 -4 3 0
7 5 -2 0
6 -5 1 0
-6 -4 -3 0
-6 4 2 0
-4 3 2 0
